n= 20; m=10; 

63	96	50	12	15	11	33	7	4	58	27	7	7	54	31	94	25	8	61	51
86	36	19	71	8	77	8	6	40	39	24	82	69	82	39	52	85	48	22	57
44	25	85	86	73	58	95	13	50	39	24	55	58	79	42	98	44	16	13	74
19	82	12	70	6	64	3	4	29	43	40	77	88	74	13	13	17	45	2	22
55	46	68	15	55	74	42	40	88	68	67	67	8	13	74	47	3	95	36	46
67	66	66	32	8	30	92	40	13	79	19	29	27	18	42	86	30	41	27	50
69	30	61	35	53	98	94	33	77	31	54	71	78	9	79	51	76	56	80	72
75	14	62	21	30	37	43	87	3	27	36	65	41	87	82	8	25	98	51	29
72	31	83	80	91	78	43	37	25	42	15	34	74	35	69	33	28	47	34	41
44	25	85	86	73	58	95	13	50	39	24	55	58	79	42	98	44	16	13	74



																			
																			
																			
																			
																			
																			
																			
																			
																			
															
																			
																			
																			
																			
																			
																			
																			
																			
																			
															
